NAME : random887170
COMMENT: random generated with id 887170
TYPE : TSP
DIMENSION : 10
EDGE_WEIGHT_TYPE : EUC_2D
NODE_COORD_SECTION
1 17.356149 12.843168
2 6.374763 6.628459
3 9.810927 7.775395
4 5.471552 13.217527
5 11.159150 1.552971
6 15.447426 17.986028
7 8.591614 6.365215
8 9.469317 4.952484
9 2.856511 6.627135
10 0.150646 5.071813
EOF
